============================[ Problem Statistics ]=============================|                                                                             ||  Number of variables:          4242                                         ||  Number of clauses:           10048                                         ||  Parse time:                   0.44 s                                       ||                                                                             |============================[ Search Statistics ]==============================| Conflicts |          ORIGINAL         |          LEARNT          | Progress ||           |    Vars  Clauses Literals |    Limit  Clauses Lit/Cl |          |===============================================================================|       100 |    1591     6253   695924 |     2292      100     53 | 62.501 % |===============================================================================restarts              : 3conflicts             : 248            (373 /sec)decisions             : 511            (0.00 % random) (770 /sec)propagations          : 11746          (17690 /sec)conflict literals     : 18683          (94.91 % deleted)CPU time              : 0.664 sSATISFIABLE